p cnf 7230 15
-254 -1444 1893 0
1444 -1893 0
-1476 1901 0
1900 -1901 0
1476 -1900 0
-1897 1899 0
1898 -1899 0
1896 -1898 0
-1474 1897 0
1474 -1896 0
1894 1895 0
1472 -1895 0
-1472 -1894 0
-1892 1893 0
1892 -1893 0
